p edge 100 1946
e 1 2
e 1 7
e 1 12
e 1 19
e 1 22
e 1 24
e 1 28
e 1 31
e 1 32
e 1 33
e 1 36
e 1 41
e 1 42
e 1 43
e 1 46
e 1 48
e 1 50
e 1 51
e 1 52
e 1 53
e 1 55
e 1 57
e 1 66
e 1 67
e 1 69
e 1 70
e 1 71
e 1 73
e 1 74
e 1 75
e 1 85
e 1 87
e 1 92
e 1 95
e 1 100
e 2 7
e 2 8
e 2 14
e 2 16
e 2 19
e 2 20
e 2 21
e 2 22
e 2 27
e 2 29
e 2 36
e 2 37
e 2 39
e 2 40
e 2 43
e 2 44
e 2 49
e 2 52
e 2 64
e 2 66
e 2 78
e 2 80
e 2 83
e 2 85
e 2 86
e 2 88
e 2 93
e 2 95
e 2 96
e 2 97
e 2 100
e 3 5
e 3 11
e 3 19
e 3 22
e 3 24
e 3 25
e 3 27
e 3 31
e 3 34
e 3 36
e 3 45
e 3 47
e 3 50
e 3 53
e 3 58
e 3 64
e 3 68
e 3 71
e 3 74
e 3 77
e 3 79
e 3 82
e 3 87
e 3 88
e 3 91
e 3 93
e 3 95
e 3 97
e 4 7
e 4 12
e 4 16
e 4 20
e 4 23
e 4 24
e 4 25
e 4 26
e 4 29
e 4 31
e 4 32
e 4 33
e 4 34
e 4 37
e 4 39
e 4 41
e 4 47
e 4 48
e 4 49
e 4 50
e 4 51
e 4 52
e 4 53
e 4 58
e 4 60
e 4 62
e 4 64
e 4 66
e 4 67
e 4 70
e 4 71
e 4 75
e 4 76
e 4 79
e 4 82
e 4 85
e 4 86
e 4 100
e 5 15
e 5 19
e 5 20
e 5 23
e 5 25
e 5 29
e 5 30
e 5 37
e 5 38
e 5 39
e 5 40
e 5 44
e 5 56
e 5 57
e 5 58
e 5 59
e 5 60
e 5 62
e 5 63
e 5 65
e 5 67
e 5 68
e 5 69
e 5 70
e 5 71
e 5 73
e 5 74
e 5 75
e 5 76
e 5 77
e 5 81
e 5 84
e 5 85
e 5 86
e 5 88
e 5 90
e 5 93
e 5 95
e 5 97
e 6 11
e 6 13
e 6 16
e 6 17
e 6 18
e 6 19
e 6 22
e 6 24
e 6 25
e 6 29
e 6 33
e 6 34
e 6 35
e 6 36
e 6 37
e 6 41
e 6 45
e 6 46
e 6 47
e 6 49
e 6 50
e 6 51
e 6 52
e 6 53
e 6 54
e 6 55
e 6 60
e 6 61
e 6 66
e 6 69
e 6 71
e 6 72
e 6 73
e 6 74
e 6 75
e 6 76
e 6 77
e 6 83
e 6 86
e 6 87
e 6 92
e 6 94
e 6 96
e 6 100
e 7 8
e 7 9
e 7 13
e 7 15
e 7 16
e 7 18
e 7 21
e 7 31
e 7 32
e 7 34
e 7 42
e 7 43
e 7 44
e 7 45
e 7 46
e 7 49
e 7 53
e 7 58
e 7 60
e 7 63
e 7 65
e 7 66
e 7 73
e 7 76
e 7 78
e 7 81
e 7 85
e 7 86
e 7 90
e 7 92
e 7 93
e 7 97
e 8 9
e 8 11
e 8 14
e 8 18
e 8 20
e 8 21
e 8 25
e 8 26
e 8 27
e 8 28
e 8 35
e 8 41
e 8 47
e 8 53
e 8 54
e 8 55
e 8 57
e 8 58
e 8 59
e 8 60
e 8 68
e 8 73
e 8 75
e 8 77
e 8 78
e 8 79
e 8 80
e 8 84
e 8 87
e 8 88
e 8 89
e 8 90
e 8 92
e 8 93
e 8 95
e 9 11
e 9 12
e 9 13
e 9 16
e 9 19
e 9 22
e 9 24
e 9 25
e 9 27
e 9 30
e 9 32
e 9 36
e 9 37
e 9 38
e 9 43
e 9 47
e 9 48
e 9 49
e 9 51
e 9 52
e 9 54
e 9 56
e 9 58
e 9 59
e 9 60
e 9 62
e 9 63
e 9 64
e 9 66
e 9 67
e 9 72
e 9 73
e 9 79
e 9 80
e 9 83
e 9 87
e 9 88
e 9 89
e 9 91
e 9 94
e 9 97
e 10 13
e 10 14
e 10 16
e 10 17
e 10 18
e 10 19
e 10 23
e 10 24
e 10 27
e 10 28
e 10 31
e 10 32
e 10 34
e 10 37
e 10 47
e 10 48
e 10 51
e 10 52
e 10 54
e 10 60
e 10 62
e 10 65
e 10 69
e 10 70
e 10 73
e 10 75
e 10 79
e 10 83
e 10 86
e 10 92
e 10 94
e 10 95
e 10 96
e 10 99
e 11 12
e 11 18
e 11 19
e 11 22
e 11 25
e 11 29
e 11 32
e 11 35
e 11 36
e 11 37
e 11 40
e 11 44
e 11 45
e 11 47
e 11 51
e 11 56
e 11 57
e 11 65
e 11 66
e 11 69
e 11 73
e 11 74
e 11 75
e 11 79
e 11 81
e 11 91
e 11 98
e 12 15
e 12 23
e 12 29
e 12 30
e 12 31
e 12 33
e 12 35
e 12 39
e 12 40
e 12 43
e 12 46
e 12 47
e 12 49
e 12 54
e 12 57
e 12 61
e 12 64
e 12 66
e 12 68
e 12 69
e 12 77
e 12 82
e 12 84
e 12 85
e 12 87
e 12 90
e 12 91
e 12 97
e 12 99
e 12 100
e 13 16
e 13 17
e 13 18
e 13 20
e 13 26
e 13 29
e 13 30
e 13 32
e 13 38
e 13 39
e 13 40
e 13 41
e 13 43
e 13 44
e 13 45
e 13 49
e 13 50
e 13 53
e 13 55
e 13 57
e 13 58
e 13 66
e 13 70
e 13 76
e 13 79
e 13 80
e 13 81
e 13 85
e 13 86
e 13 94
e 13 99
e 13 100
e 14 15
e 14 16
e 14 17
e 14 24
e 14 25
e 14 29
e 14 30
e 14 37
e 14 38
e 14 40
e 14 43
e 14 45
e 14 47
e 14 48
e 14 51
e 14 52
e 14 53
e 14 54
e 14 61
e 14 62
e 14 63
e 14 64
e 14 65
e 14 66
e 14 67
e 14 68
e 14 69
e 14 72
e 14 79
e 14 82
e 14 86
e 14 89
e 14 94
e 14 95
e 14 96
e 14 97
e 14 98
e 14 99
e 15 16
e 15 17
e 15 26
e 15 28
e 15 29
e 15 38
e 15 49
e 15 50
e 15 53
e 15 56
e 15 57
e 15 59
e 15 61
e 15 64
e 15 68
e 15 69
e 15 71
e 15 73
e 15 76
e 15 86
e 15 91
e 15 92
e 15 93
e 15 95
e 15 96
e 15 97
e 15 98
e 16 17
e 16 18
e 16 19
e 16 22
e 16 24
e 16 25
e 16 26
e 16 30
e 16 32
e 16 33
e 16 36
e 16 37
e 16 39
e 16 41
e 16 46
e 16 48
e 16 52
e 16 54
e 16 57
e 16 62
e 16 70
e 16 75
e 16 80
e 16 81
e 16 83
e 16 85
e 16 86
e 16 87
e 16 88
e 16 91
e 16 95
e 16 99
e 17 18
e 17 21
e 17 23
e 17 27
e 17 30
e 17 33
e 17 34
e 17 37
e 17 41
e 17 43
e 17 44
e 17 46
e 17 47
e 17 48
e 17 49
e 17 50
e 17 54
e 17 55
e 17 57
e 17 59
e 17 62
e 17 64
e 17 66
e 17 69
e 17 70
e 17 72
e 17 76
e 17 77
e 17 79
e 17 81
e 17 85
e 17 94
e 17 95
e 17 98
e 17 99
e 18 19
e 18 21
e 18 23
e 18 27
e 18 29
e 18 30
e 18 34
e 18 36
e 18 39
e 18 42
e 18 44
e 18 45
e 18 46
e 18 47
e 18 49
e 18 50
e 18 51
e 18 54
e 18 58
e 18 61
e 18 62
e 18 63
e 18 65
e 18 67
e 18 68
e 18 71
e 18 73
e 18 76
e 18 77
e 18 81
e 18 82
e 18 87
e 18 90
e 18 93
e 18 95
e 18 99
e 18 100
e 19 20
e 19 21
e 19 30
e 19 34
e 19 35
e 19 36
e 19 37
e 19 40
e 19 44
e 19 51
e 19 54
e 19 57
e 19 59
e 19 60
e 19 61
e 19 62
e 19 63
e 19 64
e 19 70
e 19 76
e 19 78
e 19 82
e 19 85
e 19 86
e 19 90
e 19 97
e 20 21
e 20 25
e 20 28
e 20 29
e 20 33
e 20 34
e 20 35
e 20 36
e 20 37
e 20 41
e 20 44
e 20 47
e 20 49
e 20 50
e 20 52
e 20 53
e 20 56
e 20 58
e 20 59
e 20 61
e 20 63
e 20 66
e 20 67
e 20 68
e 20 70
e 20 73
e 20 79
e 20 80
e 20 81
e 20 83
e 20 85
e 20 87
e 20 89
e 20 90
e 20 93
e 20 96
e 20 97
e 20 98
e 21 25
e 21 31
e 21 32
e 21 33
e 21 36
e 21 39
e 21 40
e 21 43
e 21 47
e 21 48
e 21 49
e 21 50
e 21 51
e 21 55
e 21 63
e 21 65
e 21 66
e 21 67
e 21 69
e 21 79
e 21 81
e 21 82
e 21 84
e 21 86
e 21 90
e 21 91
e 21 95
e 21 96
e 21 97
e 21 98
e 21 99
e 22 24
e 22 25
e 22 26
e 22 27
e 22 29
e 22 31
e 22 37
e 22 39
e 22 42
e 22 44
e 22 46
e 22 47
e 22 49
e 22 51
e 22 54
e 22 55
e 22 56
e 22 57
e 22 59
e 22 69
e 22 71
e 22 72
e 22 74
e 22 77
e 22 79
e 22 80
e 22 83
e 22 86
e 22 87
e 22 92
e 22 93
e 22 94
e 22 97
e 22 98
e 23 24
e 23 26
e 23 31
e 23 32
e 23 35
e 23 36
e 23 41
e 23 42
e 23 43
e 23 46
e 23 48
e 23 54
e 23 56
e 23 57
e 23 58
e 23 60
e 23 62
e 23 65
e 23 66
e 23 67
e 23 68
e 23 69
e 23 70
e 23 71
e 23 72
e 23 77
e 23 79
e 23 80
e 23 82
e 23 84
e 23 86
e 23 87
e 23 90
e 23 92
e 23 95
e 23 99
e 24 25
e 24 26
e 24 28
e 24 29
e 24 30
e 24 33
e 24 34
e 24 38
e 24 40
e 24 41
e 24 44
e 24 46
e 24 47
e 24 52
e 24 53
e 24 54
e 24 57
e 24 60
e 24 61
e 24 63
e 24 66
e 24 70
e 24 77
e 24 80
e 24 84
e 24 86
e 24 88
e 24 89
e 24 93
e 24 97
e 24 98
e 25 29
e 25 31
e 25 32
e 25 33
e 25 36
e 25 37
e 25 39
e 25 42
e 25 46
e 25 50
e 25 54
e 25 55
e 25 56
e 25 57
e 25 61
e 25 64
e 25 67
e 25 72
e 25 73
e 25 74
e 25 82
e 25 87
e 25 91
e 25 93
e 25 95
e 25 96
e 25 97
e 25 100
e 26 30
e 26 33
e 26 34
e 26 35
e 26 40
e 26 44
e 26 46
e 26 47
e 26 49
e 26 50
e 26 51
e 26 52
e 26 56
e 26 57
e 26 60
e 26 62
e 26 65
e 26 66
e 26 67
e 26 68
e 26 72
e 26 81
e 26 84
e 26 89
e 26 93
e 26 94
e 26 98
e 27 29
e 27 36
e 27 40
e 27 41
e 27 43
e 27 45
e 27 47
e 27 49
e 27 50
e 27 51
e 27 52
e 27 53
e 27 58
e 27 59
e 27 60
e 27 61
e 27 62
e 27 69
e 27 70
e 27 71
e 27 74
e 27 77
e 27 81
e 27 88
e 27 93
e 27 95
e 27 98
e 28 29
e 28 31
e 28 34
e 28 35
e 28 37
e 28 38
e 28 40
e 28 41
e 28 42
e 28 43
e 28 48
e 28 52
e 28 54
e 28 56
e 28 57
e 28 63
e 28 64
e 28 66
e 28 72
e 28 73
e 28 76
e 28 77
e 28 79
e 28 80
e 28 81
e 28 82
e 28 83
e 28 84
e 28 85
e 28 86
e 28 88
e 28 89
e 28 90
e 28 91
e 28 94
e 28 96
e 28 97
e 28 98
e 28 100
e 29 32
e 29 35
e 29 36
e 29 39
e 29 40
e 29 48
e 29 49
e 29 51
e 29 53
e 29 57
e 29 58
e 29 59
e 29 60
e 29 61
e 29 64
e 29 66
e 29 69
e 29 70
e 29 73
e 29 74
e 29 81
e 29 82
e 29 86
e 29 87
e 29 89
e 29 91
e 29 98
e 29 99
e 30 32
e 30 33
e 30 34
e 30 35
e 30 41
e 30 43
e 30 45
e 30 46
e 30 49
e 30 51
e 30 52
e 30 55
e 30 56
e 30 63
e 30 65
e 30 67
e 30 70
e 30 72
e 30 77
e 30 78
e 30 80
e 30 86
e 30 87
e 30 88
e 30 91
e 30 96
e 30 98
e 30 99
e 31 34
e 31 36
e 31 41
e 31 43
e 31 44
e 31 48
e 31 51
e 31 52
e 31 53
e 31 57
e 31 58
e 31 59
e 31 60
e 31 62
e 31 65
e 31 67
e 31 68
e 31 75
e 31 80
e 31 83
e 31 86
e 31 88
e 31 91
e 31 93
e 31 94
e 31 95
e 31 96
e 31 97
e 31 98
e 31 100
e 32 35
e 32 38
e 32 44
e 32 48
e 32 50
e 32 52
e 32 57
e 32 58
e 32 63
e 32 65
e 32 66
e 32 69
e 32 71
e 32 76
e 32 78
e 32 79
e 32 80
e 32 81
e 32 84
e 32 86
e 32 87
e 32 88
e 32 92
e 32 98
e 33 34
e 33 37
e 33 38
e 33 42
e 33 47
e 33 48
e 33 49
e 33 51
e 33 52
e 33 54
e 33 56
e 33 64
e 33 66
e 33 67
e 33 68
e 33 73
e 33 85
e 33 90
e 33 100
e 34 36
e 34 38
e 34 39
e 34 41
e 34 44
e 34 45
e 34 47
e 34 49
e 34 53
e 34 56
e 34 62
e 34 68
e 34 69
e 34 70
e 34 72
e 34 75
e 34 77
e 34 80
e 34 81
e 34 90
e 34 93
e 34 94
e 34 95
e 34 97
e 34 100
e 35 37
e 35 39
e 35 41
e 35 42
e 35 49
e 35 55
e 35 57
e 35 59
e 35 63
e 35 64
e 35 66
e 35 67
e 35 70
e 35 77
e 35 80
e 35 81
e 35 86
e 35 91
e 35 92
e 35 94
e 35 95
e 35 100
e 36 39
e 36 40
e 36 41
e 36 44
e 36 45
e 36 49
e 36 50
e 36 53
e 36 55
e 36 56
e 36 57
e 36 62
e 36 64
e 36 69
e 36 70
e 36 75
e 36 77
e 36 83
e 36 89
e 36 91
e 36 95
e 36 97
e 36 99
e 37 39
e 37 43
e 37 44
e 37 45
e 37 46
e 37 48
e 37 49
e 37 55
e 37 56
e 37 59
e 37 67
e 37 68
e 37 73
e 37 75
e 37 76
e 37 77
e 37 78
e 37 79
e 37 80
e 37 81
e 37 88
e 37 91
e 37 98
e 37 99
e 37 100
e 38 40
e 38 42
e 38 43
e 38 44
e 38 47
e 38 49
e 38 50
e 38 53
e 38 56
e 38 58
e 38 60
e 38 63
e 38 64
e 38 66
e 38 68
e 38 70
e 38 75
e 38 81
e 38 85
e 38 87
e 38 88
e 38 90
e 38 92
e 38 95
e 38 96
e 38 97
e 39 40
e 39 42
e 39 43
e 39 44
e 39 45
e 39 46
e 39 47
e 39 48
e 39 51
e 39 52
e 39 53
e 39 56
e 39 57
e 39 60
e 39 61
e 39 63
e 39 65
e 39 66
e 39 69
e 39 70
e 39 74
e 39 75
e 39 79
e 39 80
e 39 83
e 39 89
e 39 93
e 39 97
e 40 43
e 40 45
e 40 46
e 40 52
e 40 54
e 40 56
e 40 62
e 40 63
e 40 66
e 40 68
e 40 69
e 40 73
e 40 74
e 40 75
e 40 77
e 40 82
e 40 83
e 40 91
e 40 94
e 40 97
e 40 99
e 40 100
e 41 43
e 41 44
e 41 45
e 41 47
e 41 49
e 41 51
e 41 53
e 41 54
e 41 55
e 41 56
e 41 57
e 41 58
e 41 59
e 41 62
e 41 64
e 41 66
e 41 69
e 41 70
e 41 71
e 41 73
e 41 77
e 41 78
e 41 80
e 41 81
e 41 82
e 41 83
e 41 86
e 41 88
e 41 90
e 41 92
e 41 94
e 41 96
e 41 97
e 41 100
e 42 44
e 42 45
e 42 46
e 42 55
e 42 56
e 42 63
e 42 64
e 42 69
e 42 70
e 42 74
e 42 75
e 42 76
e 42 77
e 42 78
e 42 80
e 42 82
e 42 83
e 42 92
e 42 94
e 42 98
e 42 99
e 42 100
e 43 44
e 43 46
e 43 51
e 43 52
e 43 53
e 43 54
e 43 59
e 43 60
e 43 62
e 43 66
e 43 67
e 43 69
e 43 74
e 43 78
e 43 79
e 43 80
e 43 81
e 43 83
e 43 85
e 43 90
e 43 92
e 43 94
e 43 98
e 43 100
e 44 48
e 44 49
e 44 50
e 44 54
e 44 56
e 44 57
e 44 61
e 44 67
e 44 68
e 44 70
e 44 71
e 44 77
e 44 78
e 44 82
e 44 85
e 44 86
e 44 87
e 44 92
e 44 96
e 44 97
e 44 100
e 45 46
e 45 53
e 45 54
e 45 55
e 45 57
e 45 59
e 45 62
e 45 69
e 45 70
e 45 73
e 45 78
e 45 79
e 45 84
e 45 86
e 45 89
e 45 91
e 45 97
e 46 47
e 46 49
e 46 50
e 46 54
e 46 55
e 46 60
e 46 61
e 46 69
e 46 71
e 46 75
e 46 76
e 46 79
e 46 80
e 46 84
e 46 89
e 46 92
e 46 97
e 46 99
e 47 49
e 47 58
e 47 60
e 47 66
e 47 69
e 47 72
e 47 73
e 47 83
e 47 86
e 47 88
e 47 89
e 47 91
e 47 95
e 47 96
e 47 97
e 48 55
e 48 57
e 48 61
e 48 62
e 48 64
e 48 66
e 48 68
e 48 71
e 48 72
e 48 73
e 48 79
e 48 81
e 48 83
e 48 84
e 48 88
e 48 91
e 48 92
e 48 93
e 48 97
e 48 98
e 48 99
e 49 51
e 49 52
e 49 55
e 49 62
e 49 63
e 49 66
e 49 69
e 49 70
e 49 73
e 49 77
e 49 79
e 49 80
e 49 81
e 49 84
e 49 86
e 49 91
e 49 97
e 50 52
e 50 53
e 50 56
e 50 60
e 50 62
e 50 63
e 50 64
e 50 66
e 50 67
e 50 69
e 50 74
e 50 75
e 50 77
e 50 80
e 50 81
e 50 84
e 50 85
e 50 93
e 50 95
e 51 54
e 51 56
e 51 58
e 51 59
e 51 60
e 51 61
e 51 62
e 51 63
e 51 64
e 51 66
e 51 68
e 51 69
e 51 72
e 51 73
e 51 74
e 51 75
e 51 76
e 51 77
e 51 78
e 51 80
e 51 81
e 51 82
e 51 87
e 51 88
e 51 90
e 51 93
e 52 53
e 52 54
e 52 57
e 52 59
e 52 60
e 52 62
e 52 63
e 52 64
e 52 66
e 52 70
e 52 73
e 52 74
e 52 76
e 52 77
e 52 78
e 52 79
e 52 85
e 52 87
e 52 89
e 52 91
e 52 94
e 53 54
e 53 57
e 53 69
e 53 70
e 53 71
e 53 73
e 53 74
e 53 77
e 53 78
e 53 80
e 53 81
e 53 83
e 53 85
e 53 86
e 53 87
e 53 88
e 53 89
e 53 91
e 53 92
e 53 93
e 53 94
e 53 97
e 54 55
e 54 65
e 54 75
e 54 76
e 54 77
e 54 78
e 54 81
e 54 83
e 54 84
e 54 85
e 54 86
e 54 87
e 54 88
e 54 90
e 54 92
e 54 96
e 54 99
e 54 100
e 55 57
e 55 58
e 55 60
e 55 64
e 55 65
e 55 66
e 55 69
e 55 73
e 55 74
e 55 77
e 55 78
e 55 79
e 55 80
e 55 87
e 55 90
e 55 91
e 55 93
e 55 99
e 56 58
e 56 61
e 56 62
e 56 63
e 56 68
e 56 75
e 56 79
e 56 80
e 56 82
e 56 83
e 56 85
e 56 92
e 56 100
e 57 67
e 57 68
e 57 70
e 57 72
e 57 73
e 57 75
e 57 78
e 57 80
e 57 85
e 57 88
e 57 90
e 57 93
e 57 97
e 58 64
e 58 66
e 58 69
e 58 76
e 58 77
e 58 78
e 58 79
e 58 81
e 58 85
e 58 86
e 58 88
e 58 89
e 58 92
e 58 93
e 58 97
e 58 98
e 59 60
e 59 63
e 59 64
e 59 68
e 59 69
e 59 70
e 59 73
e 59 74
e 59 75
e 59 77
e 59 79
e 59 80
e 59 81
e 59 83
e 59 87
e 59 89
e 59 95
e 59 97
e 59 100
e 60 63
e 60 64
e 60 65
e 60 68
e 60 69
e 60 72
e 60 75
e 60 77
e 60 83
e 60 84
e 60 87
e 60 88
e 60 92
e 60 95
e 60 96
e 60 100
e 61 62
e 61 64
e 61 65
e 61 66
e 61 68
e 61 69
e 61 71
e 61 75
e 61 77
e 61 79
e 61 82
e 61 88
e 61 92
e 61 97
e 61 100
e 62 63
e 62 65
e 62 66
e 62 67
e 62 68
e 62 70
e 62 71
e 62 74
e 62 76
e 62 78
e 62 81
e 62 82
e 62 83
e 62 85
e 62 86
e 62 87
e 62 90
e 62 91
e 62 93
e 62 100
e 63 66
e 63 68
e 63 71
e 63 73
e 63 74
e 63 77
e 63 78
e 63 83
e 63 86
e 63 89
e 63 90
e 63 91
e 63 94
e 63 97
e 64 65
e 64 66
e 64 67
e 64 69
e 64 73
e 64 75
e 64 82
e 64 83
e 64 86
e 64 90
e 64 91
e 64 92
e 64 94
e 64 96
e 64 98
e 65 66
e 65 69
e 65 80
e 65 81
e 65 84
e 65 87
e 65 91
e 65 92
e 65 93
e 65 94
e 65 96
e 65 97
e 65 99
e 66 67
e 66 68
e 66 69
e 66 70
e 66 74
e 66 79
e 66 85
e 66 86
e 66 91
e 66 92
e 66 97
e 67 69
e 67 71
e 67 73
e 67 75
e 67 77
e 67 78
e 67 82
e 67 83
e 67 85
e 67 86
e 67 88
e 67 90
e 67 94
e 67 97
e 68 71
e 68 75
e 68 77
e 68 78
e 68 79
e 68 80
e 68 81
e 68 82
e 68 83
e 68 95
e 68 97
e 68 98
e 68 99
e 69 71
e 69 73
e 69 74
e 69 76
e 69 79
e 69 86
e 69 89
e 69 95
e 69 97
e 69 98
e 69 100
e 70 71
e 70 73
e 70 81
e 70 85
e 70 87
e 70 88
e 70 90
e 70 92
e 70 95
e 70 97
e 71 74
e 71 79
e 71 85
e 71 86
e 71 88
e 71 89
e 71 90
e 71 91
e 71 94
e 71 98
e 72 73
e 72 74
e 72 76
e 72 78
e 72 79
e 72 83
e 72 84
e 72 85
e 72 86
e 72 87
e 72 88
e 72 89
e 72 92
e 72 93
e 72 94
e 72 96
e 72 98
e 72 100
e 73 74
e 73 75
e 73 77
e 73 78
e 73 83
e 73 85
e 73 87
e 73 90
e 73 92
e 73 96
e 73 97
e 73 98
e 74 76
e 74 77
e 74 79
e 74 80
e 74 84
e 74 85
e 74 88
e 74 90
e 74 91
e 74 95
e 74 96
e 74 100
e 75 76
e 75 78
e 75 81
e 75 84
e 75 85
e 75 86
e 75 88
e 75 92
e 75 93
e 75 98
e 75 100
e 76 77
e 76 80
e 76 81
e 76 83
e 76 84
e 76 88
e 76 89
e 76 90
e 76 91
e 76 92
e 76 95
e 76 100
e 77 81
e 77 82
e 77 88
e 77 89
e 77 90
e 77 93
e 77 94
e 77 97
e 78 79
e 78 80
e 78 82
e 78 83
e 78 86
e 78 89
e 78 90
e 78 94
e 78 98
e 78 99
e 78 100
e 79 81
e 79 82
e 79 84
e 79 87
e 79 88
e 79 92
e 79 98
e 79 100
e 80 84
e 80 85
e 80 86
e 80 90
e 80 91
e 80 96
e 80 99
e 81 84
e 81 85
e 81 86
e 81 89
e 81 93
e 81 95
e 81 96
e 81 97
e 81 98
e 81 100
e 82 83
e 82 84
e 82 91
e 82 92
e 82 98
e 82 99
e 83 85
e 83 87
e 83 89
e 83 90
e 83 93
e 83 94
e 83 99
e 83 100
e 84 97
e 84 98
e 84 100
e 85 86
e 85 87
e 85 88
e 85 89
e 85 93
e 85 94
e 85 95
e 86 87
e 86 89
e 86 92
e 86 96
e 86 97
e 86 98
e 87 88
e 87 89
e 87 90
e 87 94
e 87 96
e 87 97
e 87 99
e 87 100
e 88 89
e 88 94
e 88 96
e 88 99
e 89 90
e 89 92
e 89 97
e 89 98
e 89 99
e 90 92
e 90 98
e 90 100
e 91 94
e 91 96
e 91 98
e 91 99
e 92 94
e 92 96
e 92 98
e 92 99
e 94 95
e 94 98
e 94 99
e 94 100
e 95 96
e 95 98
e 96 97
e 97 98
e 97 99
e 98 100
e 99 100
